(set-logic ALL)
(declare-fun var0 () String)
(assert (str.in_re var0 (re.++ (re.* (re.union (str.to_re "00") (str.to_re "11"))) (re.++ (re.union (re.+ (str.to_re "2")) (re.+ (str.to_re "33"))) (re.++ (re.union (re.union (str.to_re "444") (str.to_re "5")) (re.union (str.to_re "66") (str.to_re "777"))) (re.++ (re.+ (re.union (str.to_re "888") (str.to_re "999"))) (re.++ (re.union (re.* (str.to_re "a")) (re.* (str.to_re "bb"))) (re.++ (re.* (re.* (str.to_re "ccc"))) (re.++ (re.+ (re.+ (str.to_re "dd"))) (re.++ (re.union (re.+ (str.to_re "ee")) (re.+ (str.to_re "f"))) (re.++ (re.+ (re.+ (str.to_re "ggg"))) (re.++ (re.+ (re.+ (str.to_re "hh"))) (re.++ (re.union (re.+ (str.to_re "iii")) (re.+ (str.to_re "jj"))) (re.++ (re.union (re.union (str.to_re "kkk") (str.to_re "l")) (re.union (str.to_re "mm") (str.to_re "nnn"))) (re.++ (re.* (re.* (str.to_re "ooo"))) (re.++ (re.+ (re.union (str.to_re "p") (str.to_re "q"))) (re.++ (re.union (re.+ (str.to_re "rrr")) (re.+ (str.to_re "s"))) (re.++ (re.+ (re.union (str.to_re "tt") (str.to_re "uu"))) (re.++ (re.* (re.+ (str.to_re "vv"))) (re.++ (re.+ (re.union (str.to_re "www") (str.to_re "xxx"))) (re.++ (re.union (re.* (str.to_re "yy")) (re.* (str.to_re "zz"))) (re.++ (re.union (re.union (str.to_re "AA") (str.to_re "BB")) (re.union (str.to_re "CCC") (str.to_re "DDD"))) (re.++ (re.union (re.+ (str.to_re "E")) (re.+ (str.to_re "FF"))) (re.++ (re.* (re.union (str.to_re "G") (str.to_re "HH"))) (re.++ (re.union (re.union (str.to_re "I") (str.to_re "J")) (re.union (str.to_re "KKK") (str.to_re "LLL"))) (re.++ (re.* (re.+ (str.to_re "MM"))) (re.++ (re.union (re.union (str.to_re "N") (str.to_re "OOO")) (re.union (str.to_re "PP") (str.to_re "QQQ"))) (re.++ (re.* (re.+ (str.to_re "RR"))) (re.++ (re.+ (re.* (str.to_re "SS"))) (re.++ (re.+ (re.* (str.to_re "TT"))) (re.++ (re.* (re.+ (str.to_re "U"))) (re.++ (re.+ (re.union (str.to_re "VVV") (str.to_re "WWW"))) (re.union (re.union (str.to_re "XXX") (str.to_re "YY")) (re.union (str.to_re "ZZ") (str.to_re "!!!")))))))))))))))))))))))))))))))))))
(check-sat)